% demand
num_movements = 30;
loading_factor = [1400, 1250, 1150, 1750, 1950, 1600, 2000, 1800, 1650, 850, 1100, 1900, 1000, 900, 900, 1750, 1650, 1400, 1100, 1050, 1700, 1100, 1600, 1050, 800, 1300, 2000, 1650, 1850, 800];
pickup_time = [0, 0, 0, 0, 0, 1, 1, 1, 1, 1, 2, 2, 2, 2, 2, 3, 3, 3, 4, 4, 4, 4, 5, 5, 5, 5, 7, 7, 7, 8];
delivery_time = [1, 1, 3, 2, 1, 2, 2, 2, 2, 2, 3, 3, 3, 7, 3, 9, 5, 5, 5, 7, 5, 7, 6, 9, 8, 9, 9, 9, 9, 9];

% transporter definition
total_capacity = 11000;
num_decks = 4;
capacity = [3000, 3000, 1000, 4000];

% ways out of decks
num_ways_out = 2;
paths_out = array3d(decks, ways_out, decks, [
% ways out of deck d1
2, 4, 0, 0, 3, 4, 0, 0, 

% ways out of deck d2
4, 0, 0, 0, 0, 0, 0, 0,	

% ways out of deck d3
4, 0, 0, 0, 0, 0, 0, 0,	

% ways out of deck d4
0, 0, 0, 0,	0, 0, 0, 0,	

]);

